c File: instances/28_0.15_2.col
c
c Description: Random graph of size 28 vertices and P(0.15000000000000002) of edges between any two vertices.
p col 28 378
e 1 4
e 1 6
e 1 8
e 1 21
e 2 17
e 2 20
e 2 27
e 3 5
e 3 12
e 3 17
e 3 20
e 3 23
e 3 27
e 4 23
e 4 26
e 5 17
e 5 25
e 6 9
e 7 9
e 7 19
e 7 25
e 9 13
e 9 25
e 10 11
e 10 17
e 10 25
e 11 12
e 11 18
e 12 27
e 12 28
e 13 17
e 13 20
e 13 25
e 13 26
e 14 23
e 14 26
e 14 28
e 15 27
e 16 23
e 17 27
e 18 20
e 19 27
e 20 24
e 20 28
e 21 26
e 22 23
e 22 26
e 23 25
e 25 26
e 25 28
e 26 27